
Gurobi 9.1.2 (linux64) logging started Tue Mar 29 22:38:53 2022

Changed value of parameter LogFile to abilene_v-HSTNng.log
   Prev:   Default: 
Changed value of parameter MIPFocus to 1
   Prev: 0  Min: 0  Max: 3  Default: 0
Changed value of parameter TimeLimit to 600.0
   Prev: inf  Min: 0.0  Max: inf  Default: inf
Warning: variables 0 and 54 have the same name "X[ATLAM5,ATLAng]"
Warning: linear constraint 78 and linear constraint 79 have the same name "weight-constr-t5"
Warning: to let Gurobi read it back, use rlp format
Gurobi Optimizer version 9.1.2 build v9.1.2rc0 (linux64)
Thread count: 32 physical cores, 64 logical processors, using up to 32 threads
Optimize a model with 377 rows, 324 columns and 1056 nonzeros
Model fingerprint: 0x96c64d67
Variable types: 72 continuous, 252 integer (252 binary)
Coefficient statistics:
  Matrix range     [1e+00, 1e+06]
  Objective range  [2e-01, 2e-01]
  Bounds range     [1e+00, 5e+05]
  RHS range        [1e+00, 1e+06]
Found heuristic solution: objective 24.6666667
Presolve removed 78 rows and 90 columns
Presolve time: 0.00s
Presolved: 299 rows, 234 columns, 1230 nonzeros
Variable types: 66 continuous, 168 integer (168 binary)

Root relaxation: objective 1.200000e+01, 54 iterations, 0.00 seconds

    Nodes    |    Current Node    |     Objective Bounds      |     Work
 Expl Unexpl |  Obj  Depth IntInf | Incumbent    BestBd   Gap | It/Node Time

     0     0   12.00000    0    4   24.66667   12.00000  51.4%     -    0s
H    0     0                      23.3333333   12.00000  48.6%     -    0s
     0     0   12.00000    0   10   23.33333   12.00000  48.6%     -    0s
H    0     0                      23.1666667   12.00000  48.2%     -    0s
H    0     0                      22.1666667   12.00000  45.9%     -    0s
H    0     0                      22.0000000   12.00000  45.5%     -    0s
     0     0   12.00000    0   10   22.00000   12.00000  45.5%     -    0s
H    0     0                      21.8333333   12.00000  45.0%     -    0s
     0     0   12.00000    0    4   21.83333   12.00000  45.0%     -    0s
H    0     0                      19.6666667   12.00000  39.0%     -    0s
     0     0   12.00000    0    7   19.66667   12.00000  39.0%     -    0s
H    0     0                      16.0000000   12.00000  25.0%     -    0s
     0     0   12.00000    0    4   16.00000   12.00000  25.0%     -    0s
     0     0   12.00000    0    6   16.00000   12.00000  25.0%     -    0s
     0     0   12.00000    0    6   16.00000   12.00000  25.0%     -    0s
     0     0   12.00000    0    6   16.00000   12.00000  25.0%     -    0s
     0     0   12.00000    0    6   16.00000   12.00000  25.0%     -    0s
     0     2   12.00000    0    6   16.00000   12.00000  25.0%     -    0s
*  564   355              19      15.0000025   12.00000  20.0%   8.1    1s
*  646   380              21      14.0000000   12.00000  14.3%   7.8    1s
*  707   380              23      13.3333365   12.00000  10.0%   7.6    1s
*  856   421              23      13.1666698   12.00000  8.86%   7.6    1s
*  876   421              12      12.0000016   12.00000  0.00%   7.7    1s

Cutting planes:
  Learned: 2
  Implied bound: 10
  Clique: 1
  MIR: 2
  Flow cover: 8
  RLT: 1
  Relax-and-lift: 3

Explored 906 nodes (7773 simplex iterations) in 1.43 seconds
Thread count was 32 (of 64 available processors)

Solution count 10: 12 13.1667 13.3333 ... 22.1667

Optimal solution found (tolerance 1.00e-04)
Best objective 1.200000000000e+01, best bound 1.200000000000e+01, gap 0.0000%
